benchmark_str_length/p2_10_4-1.txt
{
	"num_strings": 10,
	"alphabet": "ACGT",
	"strings": [
		"A",
		"CCG",
		"AA",
		"A",
		"TAG",
		"A",
		"ATAC",
		"GGC",
		"T",
		"AAC"
	],
	"str_length":[1,3,2,1,3,1,4,3,1,3]
}